
Welcome to IBM(R) ILOG(R) CPLEX(R) Interactive Optimizer 12.10.0.0
  with Simplex, Mixed Integer & Barrier Optimizers
5725-A06 5725-A29 5724-Y48 5724-Y49 5724-Y54 5724-Y55 5655-Y21
Copyright IBM Corp. 1988, 2019.  All Rights Reserved.

Type 'help' for a list of available commands.
Type 'help' followed by a command name for more
information on commands.

CPLEX> Problem '/var/folders/wb/6pm8s60x797b47qg789x82sc0000gn/T/3af0e7674c594b4caa5367456d7fb1a2-pulp.lp' read.
Read time = 0.03 sec. (0.52 ticks)
CPLEX> MIP start file '/var/folders/wb/6pm8s60x797b47qg789x82sc0000gn/T/3af0e7674c594b4caa5367456d7fb1a2-pulp.mst' read.
CPLEX> New value for indicator for advanced starting information: 1
CPLEX> New value for time limit in seconds: 7200
CPLEX> New value for default parallel thread count: 1
CPLEX> Version identifier: 12.10.0.0 | 2019-11-26 | 843d4de
CPXPARAM_Threads                                 1
CPXPARAM_TimeLimit                               7200
1 of 1 MIP starts provided solutions.
MIP start 'm1' defined initial solution with objective 24013.0200.
Tried aggregator 1 time.
MIP Presolve eliminated 1020 rows and 450 columns.
MIP Presolve modified 2182 coefficients.
Reduced MIP has 5346 rows, 2034 columns, and 13662 nonzeros.
Reduced MIP has 2034 binaries, 0 generals, 0 SOSs, and 0 indicators.
Presolve time = 0.02 sec. (15.71 ticks)
Probing time = 0.01 sec. (4.83 ticks)
Tried aggregator 1 time.
Detecting symmetries...
Reduced MIP has 5346 rows, 2034 columns, and 13662 nonzeros.
Reduced MIP has 2034 binaries, 0 generals, 0 SOSs, and 0 indicators.
Presolve time = 0.01 sec. (13.20 ticks)
Probing time = 0.00 sec. (4.77 ticks)
Clique table members: 8315.
MIP emphasis: balance optimality and feasibility.
MIP search method: dynamic search.
Parallel mode: none, using 1 thread.
Root relaxation solution time = 0.08 sec. (67.41 ticks)

        Nodes                                         Cuts/
   Node  Left     Objective  IInf  Best Integer    Best Bound    ItCnt     Gap

*     0+    0                        24013.0200        0.0000           100.00%
      0     0        0.0000   242    24013.0200        0.0000      657  100.00%
      0     0        0.0000   242    24013.0200      Cuts: 17      758  100.00%
      0     0        0.0000   242    24013.0200     Cuts: 194     1535  100.00%
      0     0        0.0000   242    24013.0200      Cuts: 19     1629  100.00%
      0     0        0.0000   242    24013.0200     Cuts: 176     2426  100.00%
      0     2        0.0000   243    24013.0200        0.0000     2426  100.00%
Elapsed time = 2.20 sec. (2619.02 ticks, tree = 0.01 MB, solutions = 1)
      2     4        0.0000   234    24013.0200        0.0000     4850  100.00%
      3     5     8863.1278   223    24013.0200        0.0000     7037  100.00%
      8    10     2710.3115   220    24013.0200        0.0000     8988  100.00%
     15    17     3578.5093   239    24013.0200        0.0000    10825  100.00%
     26    28    20457.6050   155    24013.0200        0.0000    13208  100.00%
     38    34      644.5997   229    24013.0200        0.0000    15232  100.00%
     40    36      644.5997   241    24013.0200        0.0000    16260  100.00%
     45    41     1666.4391   240    24013.0200        0.0000    18028  100.00%
     50    46     2461.3026   220    24013.0200        0.0000    20008  100.00%
     80    72     1055.0252   242    24013.0200      323.7439    25646   98.65%
Elapsed time = 5.33 sec. (7176.16 ticks, tree = 0.35 MB, solutions = 1)
    110    98     2442.1942   222    24013.0200      433.7227    31203   98.19%
    134   114     1117.1275   227    24013.0200      433.7227    36643   98.19%
    147   127    14355.2760   125    24013.0200      433.7227    41314   98.19%
    162   136     1128.1277   239    24013.0200      489.2076    45924   97.96%
    196   162     1425.4923   236    24013.0200      489.2076    55214   97.96%
    212   174     2289.1723   229    24013.0200      505.4248    61360   97.90%
    237   195      562.0462   242    24013.0200      505.4248    68830   97.90%
    260   213      768.3224   241    24013.0200      523.2235    76665   97.82%
    270   223     3359.8065   227    24013.0200      523.2235    82351   97.82%
    304   253    17562.4102   164    24013.0200      525.8243    92003   97.81%
Elapsed time = 12.14 sec. (17258.07 ticks, tree = 0.63 MB, solutions = 1)
    320   261      966.2258   244    24013.0200      542.2148    96552   97.74%
    348   285     1966.8452   238    24013.0200      542.2148   106395   97.74%
    386   313     2133.9512   232    24013.0200      553.8311   116898   97.69%
    410   329     3264.3489   213    24013.0200      562.0462   126513   97.66%
    431   346     6329.6891   205    24013.0200      562.0462   134473   97.66%
    456   363     1521.1596   237    24013.0200      573.5266   143028   97.61%
    482   385     1297.5863   236    24013.0200      575.9058   151745   97.60%
    514   407     3384.2347   225    24013.0200      575.9058   160082   97.60%
    538   421      644.5997   221    24013.0200      575.9058   169099   97.60%
    566   445        cutoff          24013.0200      575.9058   176444   97.60%
Elapsed time = 19.33 sec. (27608.84 ticks, tree = 1.66 MB, solutions = 1)
    589   464     2289.1686   227    24013.0200      581.9278   182633   97.58%
    614   483     2334.5920   222    24013.0200      592.0487   191294   97.53%
    638   497     2592.6326   246    24013.0200      599.6684   200273   97.50%
    672   523     1331.7665   239    24013.0200      620.3220   209597   97.42%
    702   549     6035.0060   260    24013.0200      620.3220   217873   97.42%
    736   575     3718.5322   236    24013.0200      640.3416   226675   97.33%
    767   602     4740.7835   226    24013.0200      644.5997   236210   97.32%
    801   626      689.5747   239    24013.0200      644.5997   246300   97.32%
    821   642     2121.7386   231    24013.0200      644.5997   256117   97.32%
    844   657     2269.6583   238    24013.0200      644.5997   264732   97.32%
Elapsed time = 1979.85 sec. (37769.13 ticks, tree = 2.36 MB, solutions = 1)
    874   677    16764.6147   120    24013.0200      662.5199   273965   97.24%
    887   686     2131.1821   225    24013.0200      665.2354   276943   97.23%
    917   708     3838.5440   229    24013.0200      690.5998   286156   97.12%
    939   726     1710.0741   249    24013.0200      692.9288   294829   97.11%
    958   741     4546.0404   247    24013.0200      703.7192   302328   97.07%
    972   747      812.2111   243    24013.0200      716.7335   309149   97.02%
    982   753     3095.2757   232    24013.0200      723.1016   315572   96.99%
    992   763     3179.5881   227    24013.0200      723.1016   321024   96.99%
   1018   777     1120.1091   247    24013.0200      752.0987   328659   96.87%
   1036   789     2180.0693   232    24013.0200      755.9748   336309   96.85%
Elapsed time = 4508.01 sec. (47758.99 ticks, tree = 3.20 MB, solutions = 1)

Performing restart 1

Repeating presolve.
Tried aggregator 1 time.
Reduced MIP has 5346 rows, 2034 columns, and 13662 nonzeros.
Reduced MIP has 2034 binaries, 0 generals, 0 SOSs, and 0 indicators.
Presolve time = 0.01 sec. (9.90 ticks)
Tried aggregator 1 time.
Reduced MIP has 5346 rows, 2034 columns, and 13662 nonzeros.
Reduced MIP has 2034 binaries, 0 generals, 0 SOSs, and 0 indicators.
Presolve time = 0.01 sec. (13.56 ticks)
Represolve time = 0.18 sec. (152.08 ticks)
   1058     0        0.0000   259    24013.0200      Cuts: 75   343016   96.84%
   1058     0        0.0000   259    24013.0200  ZeroHalf: 14   343947   96.84%
   1058     0        0.0000   259    24013.0200     Cuts: 129   344812   96.84%
   1058     0        0.0000   259    24013.0200      Cuts: 27   345655   96.84%
   1058     0        0.0000   259    24013.0200     Cuts: 122   346147   96.84%
   1058     0        0.0000   259    24013.0200      Cuts: 30   346692   96.84%
   1058     0        0.0000   259    24013.0200      Cuts: 69   347512   96.84%
   1058     2        0.0000   266    24013.0200      759.8509   347512   96.84%
   1061     5      678.9765   261    24013.0200      759.8509   349977   96.84%
   1064     8      825.6584   254    24013.0200      759.8509   352412   96.84%
   1070    14     1623.8090   249    24013.0200      759.8509   354769   96.84%
   1077    21     2589.6811   263    24013.0200      759.8509   356150   96.84%
   1078    22     2241.0209   240    24013.0200      759.8509   356266   96.84%
   1089    33     4383.5232   245    24013.0200      759.8509   358784   96.84%
   1094    38     7914.0048   203    24013.0200      759.8509   362387   96.84%
   1102    46    10664.8881   210    24013.0200      759.8509   363934   96.84%
Advanced basis not built.

Clique cuts applied:  2
Zero-half cuts applied:  35
Gomory fractional cuts applied:  1

Root node processing (before b&c):
  Real time             =    2.18 sec. (2595.98 ticks)
Sequential b&c:
  Real time             = 11756.80 sec. (61410.09 ticks)
                          ------------
Total (root+branch&cut) = 11758.98 sec. (64006.07 ticks)

Solution pool: 1 solution saved.

MIP - Time limit exceeded, integer feasible:  Objective =  2.4013020034e+04
Current MIP best bound =  7.5985086302e+02 (gap = 23253.2, 96.84%)
Solution time = 11758.98 sec.  Iterations = 366008  Nodes = 1109 (49)
Deterministic time = 64006.08 ticks  (5.44 ticks/sec)

CPLEX> MILP problem relaxed to LP with fixed integer variables using
incumbent solution.
CPLEX> Version identifier: 12.10.0.0 | 2019-11-26 | 843d4de
CPXPARAM_Threads                                 1
CPXPARAM_TimeLimit                               7200
Using steepest-edge.

Primal simplex - Optimal:  Objective =  2.4013020034e+04
Solution time =    0.00 sec.  Iterations = 0 (0)
Deterministic time = 2.63 ticks  (555.78 ticks/sec)

CPLEX> Solution written to file '/var/folders/wb/6pm8s60x797b47qg789x82sc0000gn/T/3af0e7674c594b4caa5367456d7fb1a2-pulp.sol'.
CPLEX> 
Welcome to IBM(R) ILOG(R) CPLEX(R) Interactive Optimizer 12.10.0.0
  with Simplex, Mixed Integer & Barrier Optimizers
5725-A06 5725-A29 5724-Y48 5724-Y49 5724-Y54 5724-Y55 5655-Y21
Copyright IBM Corp. 1988, 2019.  All Rights Reserved.

Type 'help' for a list of available commands.
Type 'help' followed by a command name for more
information on commands.

CPLEX> Problem '/var/folders/wb/6pm8s60x797b47qg789x82sc0000gn/T/1835c175353e4974b3d838ab0f3db637-pulp.lp' read.
Read time = 0.01 sec. (0.52 ticks)
CPLEX> MIP start file '/var/folders/wb/6pm8s60x797b47qg789x82sc0000gn/T/1835c175353e4974b3d838ab0f3db637-pulp.mst' read.
CPLEX> New value for indicator for advanced starting information: 1
CPLEX> New value for time limit in seconds: 7200
CPLEX> New value for default parallel thread count: 1
CPLEX> Version identifier: 12.10.0.0 | 2019-11-26 | 843d4de
CPXPARAM_Threads                                 1
CPXPARAM_TimeLimit                               7200
1 of 1 MIP starts provided solutions.
MIP start 'm1' defined initial solution with objective 12432.5758.
Tried aggregator 1 time.
MIP Presolve eliminated 1020 rows and 450 columns.
MIP Presolve modified 2182 coefficients.
Reduced MIP has 5346 rows, 2034 columns, and 13662 nonzeros.
Reduced MIP has 2034 binaries, 0 generals, 0 SOSs, and 0 indicators.
Presolve time = 0.02 sec. (15.72 ticks)
Probing time = 0.01 sec. (4.83 ticks)
Tried aggregator 1 time.
Detecting symmetries...
Reduced MIP has 5346 rows, 2034 columns, and 13662 nonzeros.
Reduced MIP has 2034 binaries, 0 generals, 0 SOSs, and 0 indicators.
Presolve time = 0.02 sec. (13.21 ticks)
Probing time = 0.01 sec. (4.77 ticks)
Clique table members: 8315.
MIP emphasis: balance optimality and feasibility.
MIP search method: dynamic search.
Parallel mode: none, using 1 thread.
Root relaxation solution time = 0.00 sec. (67.41 ticks)

        Nodes                                         Cuts/
   Node  Left     Objective  IInf  Best Integer    Best Bound    ItCnt     Gap

*     0+    0                        12432.5758        0.0000           100.00%
      0     0        0.0000   242    12432.5758        0.0000      657  100.00%
      0     0        0.0000   242    12432.5758      Cuts: 17      758  100.00%
      0     0        0.0000   242    12432.5758     Cuts: 194     1535  100.00%
      0     0        0.0000   242    12432.5758      Cuts: 19     1629  100.00%
      0     0        0.0000   242    12432.5758     Cuts: 176     2426  100.00%
      0     2        0.0000   243    12432.5758        0.0000     2426  100.00%
Elapsed time = 2.24 sec. (2660.24 ticks, tree = 0.01 MB, solutions = 1)
      2     4        0.0000   234    12432.5758        0.0000     4850  100.00%
      3     5     4537.4370   212    12432.5758        0.0000     7300  100.00%
      8    10     4926.7268   218    12432.5758        0.0000     9450  100.00%
     25    21        8.3290   243    12432.5758        0.0000    11563  100.00%
     32    28       85.2402   239    12432.5758        0.0000    13681  100.00%
     38    34      376.3942   234    12432.5758        0.0000    15941  100.00%
     42    38      664.4336   221    12432.5758        0.0000    17862  100.00%
     48    44     1223.2749   223    12432.5758        0.0000    20064  100.00%
     55    51     4172.8470   228    12432.5758        0.0000    21868  100.00%
     86    74        4.7619   229    12432.5758        4.7619    30147   99.96%
Elapsed time = 5.04 sec. (6718.01 ticks, tree = 0.35 MB, solutions = 1)
     90    78      639.4160   231    12432.5758        4.7619    31996   99.96%
    115    97        4.7619   241    12432.5758        4.7619    37647   99.96%
    141   119       31.5246   246    12432.5758        4.7619    42965   99.96%
    159   137     4149.4302   211    12432.5758        4.7619    50000   99.96%
    191   157     1344.4871   253    12432.5758        4.7619    57092   99.96%
    220   178     2360.4252   232    12432.5758        4.7619    64099   99.96%
    240   194     2343.6874   257    12432.5758        8.3290    70899   99.93%
    261   211       10.1136   234    12432.5758        9.2208    77853   99.93%
    275   225       14.8701   235    12432.5758        9.2208    85064   99.93%

Implied bound cuts applied:  92
Zero-half cuts applied:  27
Gomory fractional cuts applied:  1

Root node processing (before b&c):
  Real time             =    2.22 sec. (2637.21 ticks)
Sequential b&c:
  Real time             = 7250.52 sec. (14109.66 ticks)
                          ------------
Total (root+branch&cut) = 7252.73 sec. (16746.87 ticks)

Solution pool: 1 solution saved.

MIP - Time limit exceeded, integer feasible:  Objective =  1.2432575843e+04
Current MIP best bound =  9.2207703362e+00 (gap = 12423.4, 99.93%)
Solution time = 7252.73 sec.  Iterations = 93393  Nodes = 288 (237)
Deterministic time = 16746.88 ticks  (2.31 ticks/sec)

CPLEX> MILP problem relaxed to LP with fixed integer variables using
incumbent solution.
CPLEX> Version identifier: 12.10.0.0 | 2019-11-26 | 843d4de
CPXPARAM_Threads                                 1
CPXPARAM_TimeLimit                               7200
Using steepest-edge.

Primal simplex - Optimal:  Objective =  1.2432575843e+04
Solution time =    0.01 sec.  Iterations = 0 (0)
Deterministic time = 2.63 ticks  (468.02 ticks/sec)

CPLEX> Solution written to file '/var/folders/wb/6pm8s60x797b47qg789x82sc0000gn/T/1835c175353e4974b3d838ab0f3db637-pulp.sol'.
CPLEX> 
Welcome to IBM(R) ILOG(R) CPLEX(R) Interactive Optimizer 12.10.0.0
  with Simplex, Mixed Integer & Barrier Optimizers
5725-A06 5725-A29 5724-Y48 5724-Y49 5724-Y54 5724-Y55 5655-Y21
Copyright IBM Corp. 1988, 2019.  All Rights Reserved.

Type 'help' for a list of available commands.
Type 'help' followed by a command name for more
information on commands.

CPLEX> Problem '/var/folders/wb/6pm8s60x797b47qg789x82sc0000gn/T/dfa64a9aa1b14bbabf4b7304ef205bf1-pulp.lp' read.
Read time = 0.02 sec. (2.30 ticks)
CPLEX> MIP start file '/var/folders/wb/6pm8s60x797b47qg789x82sc0000gn/T/dfa64a9aa1b14bbabf4b7304ef205bf1-pulp.mst' read.
CPLEX> New value for indicator for advanced starting information: 1
CPLEX> New value for time limit in seconds: 7200
CPLEX> New value for default parallel thread count: 1
CPLEX> Version identifier: 12.10.0.0 | 2019-11-26 | 843d4de
CPXPARAM_Threads                                 1
CPXPARAM_TimeLimit                               7200
1 of 1 MIP starts provided solutions.
MIP start 'm1' defined initial solution with objective 22631.0340.
Tried aggregator 1 time.
MIP Presolve eliminated 20112 rows and 8004 columns.
MIP Presolve modified 2508 coefficients.
Reduced MIP has 7998 rows, 3084 columns, and 20220 nonzeros.
Reduced MIP has 3084 binaries, 0 generals, 0 SOSs, and 0 indicators.
Presolve time = 0.04 sec. (40.14 ticks)
Probing time = 0.01 sec. (4.45 ticks)
Tried aggregator 1 time.
Detecting symmetries...
MIP Presolve eliminated 6 rows and 0 columns.
Reduced MIP has 7992 rows, 3084 columns, and 20148 nonzeros.
Reduced MIP has 3084 binaries, 0 generals, 0 SOSs, and 0 indicators.
Presolve time = 0.02 sec. (18.15 ticks)
Probing time = 0.00 sec. (4.31 ticks)
Clique table members: 12952.
MIP emphasis: balance optimality and feasibility.
MIP search method: dynamic search.
Parallel mode: none, using 1 thread.
Root relaxation solution time = 0.31 sec. (236.73 ticks)

        Nodes                                         Cuts/
   Node  Left     Objective  IInf  Best Integer    Best Bound    ItCnt     Gap

*     0+    0                        22631.0340        0.0000           100.00%
      0     0     2892.0414   316    22631.0340     2892.0414     2548   87.22%
      0     0     2954.4885   316    22631.0340     Cuts: 162     4196   86.94%
      0     0     2987.1406   316    22631.0340     Cuts: 121     5399   86.80%
      0     0     3008.4905   316    22631.0340     Cuts: 179     7717   86.71%
      0     0     3062.9994   316    22631.0340     Cuts: 113     9504   86.47%
      0     0     3166.8900   316    22631.0340     Cuts: 163    10755   86.01%
Detecting symmetries...
      0     0     3299.8623   316    22631.0340     Cuts: 156    12076   85.42%
      0     0     3521.8166   316    22631.0340     Cuts: 196    13427   84.44%
      0     0     3749.1408   316    22631.0340     Cuts: 207    14764   83.43%
      0     0     3914.8896   316    22631.0340     Cuts: 184    16587   82.70%
      0     0     4169.1389   316    22631.0340     Cuts: 182    18253   81.58%
      0     0     4228.4989   316    22631.0340     Cuts: 194    20077   81.32%
      0     0     4476.1303   316    22631.0340     Cuts: 158    23063   80.22%
      0     0     4662.8920   316    22631.0340     Cuts: 198    25160   79.40%
      0     0     4733.0920   316    22631.0340     Cuts: 219    27221   79.09%
      0     0     4867.5849   316    22631.0340     Cuts: 187    29078   78.49%
      0     0     4913.0922   316    22631.0340     Cuts: 214    30639   78.29%
      0     0     5080.3155   316    22631.0340     Cuts: 177    31881   77.55%
      0     0     5134.8848   316    22631.0340     Cuts: 208    32917   77.31%
      0     0     5157.9988   316    22631.0340     Cuts: 217    34932   77.21%
      0     0     5183.5765   316    22631.0340     Cuts: 142    36988   77.10%
      0     0     5227.8873   316    22631.0340     Cuts: 174    37770   76.90%
      0     0     5260.2020   316    22631.0340     Cuts: 158    39877   76.76%
      0     0     5305.9607   316    22631.0340     Cuts: 214    41280   76.55%
      0     0     5357.7770   316    22631.0340     Cuts: 182    42678   76.33%
      0     0     5442.4510   316    22631.0340     Cuts: 205    44742   75.95%
      0     0     5465.5324   316    22631.0340     Cuts: 174    45830   75.85%
      0     0     5499.4034   316    22631.0340     Cuts: 179    47770   75.70%
      0     0     5524.9887   316    22631.0340     Cuts: 166    49821   75.59%
      0     0     5542.5311   316    22631.0340     Cuts: 170    51444   75.51%

Implied bound cuts applied:  154
Zero-half cuts applied:  257
Lift and project cuts applied:  1
Gomory fractional cuts applied:  3

Root node processing (before b&c):
  Real time             = 7249.84 sec. (14284.45 ticks)
Sequential b&c:
  Real time             =    0.00 sec. (0.00 ticks)
                          ------------
Total (root+branch&cut) = 7249.84 sec. (14284.45 ticks)

Solution pool: 1 solution saved.

MIP - Time limit exceeded, integer feasible:  Objective =  2.2631033965e+04
Current MIP best bound =  5.5425310905e+03 (gap = 17088.5, 75.51%)
Solution time = 7249.84 sec.  Iterations = 52931  Nodes = 0 (1)
Deterministic time = 14284.48 ticks  (1.97 ticks/sec)

CPLEX> MILP problem relaxed to LP with fixed integer variables using
incumbent solution.
CPLEX> Version identifier: 12.10.0.0 | 2019-11-26 | 843d4de
CPXPARAM_Threads                                 1
CPXPARAM_TimeLimit                               7200
Using steepest-edge.

Primal simplex - Optimal:  Objective =  2.2631033965e+04
Solution time =    0.01 sec.  Iterations = 0 (0)
Deterministic time = 11.48 ticks  (840.02 ticks/sec)

CPLEX> Solution written to file '/var/folders/wb/6pm8s60x797b47qg789x82sc0000gn/T/dfa64a9aa1b14bbabf4b7304ef205bf1-pulp.sol'.
CPLEX> 
Welcome to IBM(R) ILOG(R) CPLEX(R) Interactive Optimizer 12.10.0.0
  with Simplex, Mixed Integer & Barrier Optimizers
5725-A06 5725-A29 5724-Y48 5724-Y49 5724-Y54 5724-Y55 5655-Y21
Copyright IBM Corp. 1988, 2019.  All Rights Reserved.

Type 'help' for a list of available commands.
Type 'help' followed by a command name for more
information on commands.

CPLEX> Problem '/var/folders/wb/6pm8s60x797b47qg789x82sc0000gn/T/715dd059888f4978b3da141e44eed864-pulp.lp' read.
Read time = 0.03 sec. (1.84 ticks)
CPLEX> MIP start file '/var/folders/wb/6pm8s60x797b47qg789x82sc0000gn/T/715dd059888f4978b3da141e44eed864-pulp.mst' read.
CPLEX> New value for indicator for advanced starting information: 1
CPLEX> New value for time limit in seconds: 7200
CPLEX> New value for default parallel thread count: 1
CPLEX> Version identifier: 12.10.0.0 | 2019-11-26 | 843d4de
CPXPARAM_Threads                                 1
CPXPARAM_TimeLimit                               7200
1 of 1 MIP starts provided solutions.
MIP start 'm1' defined initial solution with objective 103906.3787.
Tried aggregator 1 time.
MIP Presolve eliminated 3421 rows and 1110 columns.
MIP Presolve modified 4185 coefficients.
Reduced MIP has 18414 rows, 6918 columns, and 50898 nonzeros.
Reduced MIP has 6918 binaries, 0 generals, 0 SOSs, and 0 indicators.
Presolve time = 0.09 sec. (53.47 ticks)
Probing time = 0.02 sec. (6.29 ticks)
Tried aggregator 1 time.
Detecting symmetries...
Reduced MIP has 18414 rows, 6918 columns, and 50898 nonzeros.
Reduced MIP has 6918 binaries, 0 generals, 0 SOSs, and 0 indicators.
Presolve time = 0.08 sec. (42.76 ticks)
Probing time = 0.01 sec. (5.98 ticks)
Clique table members: 30749.
MIP emphasis: balance optimality and feasibility.
MIP search method: dynamic search.
Parallel mode: none, using 1 thread.
Root relaxation solution time = 1.68 sec. (843.52 ticks)

        Nodes                                         Cuts/
   Node  Left     Objective  IInf  Best Integer    Best Bound    ItCnt     Gap

*     0+    0                       103906.3787        0.0000           100.00%
      0     0      795.6702   753   103906.3787      795.6702     4879   99.23%
      0     0      873.2716   753   103906.3787     Cuts: 133    11996   99.16%
      0     0     1032.8814   753   103906.3787     Cuts: 502    16009   99.01%
      0     0     1071.4068   753   103906.3787     Cuts: 554    19963   98.97%
      0     0     1129.4563   753   103906.3787     Cuts: 593    24377   98.91%
      0     0     1203.6570   753   103906.3787     Cuts: 420    31721   98.84%
Detecting symmetries...
      0     0     1383.7513   753   103906.3787     Cuts: 531    37014   98.67%

Clique cuts applied:  1
Implied bound cuts applied:  231
Zero-half cuts applied:  599
Lift and project cuts applied:  3
Gomory fractional cuts applied:  3

Root node processing (before b&c):
  Real time             = 7291.50 sec. (30056.69 ticks)
Sequential b&c:
  Real time             =    0.00 sec. (0.00 ticks)
                          ------------
Total (root+branch&cut) = 7291.50 sec. (30056.69 ticks)

Solution pool: 1 solution saved.

MIP - Time limit exceeded, integer feasible:  Objective =  1.0390637872e+05
Current MIP best bound =  1.3837512738e+03 (gap = 102523, 98.67%)
Solution time = 7291.50 sec.  Iterations = 43349  Nodes = 0 (1)
Deterministic time = 30056.71 ticks  (4.12 ticks/sec)

CPLEX> MILP problem relaxed to LP with fixed integer variables using
incumbent solution.
CPLEX> Version identifier: 12.10.0.0 | 2019-11-26 | 843d4de
CPXPARAM_Threads                                 1
CPXPARAM_TimeLimit                               7200
Using steepest-edge.

Primal simplex - Optimal:  Objective =  1.0390637872e+05
Solution time =    0.02 sec.  Iterations = 0 (0)
Deterministic time = 8.94 ticks  (556.38 ticks/sec)

CPLEX> Solution written to file '/var/folders/wb/6pm8s60x797b47qg789x82sc0000gn/T/715dd059888f4978b3da141e44eed864-pulp.sol'.
CPLEX> 